bestever    1665    in generation 0
[19, 13, 10, 20, 7, 9, 11, 2, 16, 1, 3, 8, 4, 15, 6, 14, 18, 5, 17, 12, 19, 13, 10, 20, 7, 9, 11, 2, 16, 1, 3, 8, 4, 15, 6, 14, 18, 5, 17, 12, 19, 13, 10, 20, 7, 9, 11, 2, 16, 1, 3, 8, 4, 15, 6, 14, 18, 5, 17, 12, 19, 13, 10, 20, 7, 9, 11, 2, 16, 1, 3, 8, 4, 15, 6, 14, 18, 5, 17, 12, 19, 13, 10, 20, 7, 9, 11, 2, 16, 1, 3, 8, 4, 15, 6, 14, 18, 5, 17, 12, 19, 13, 10, 20, 7, 9, 11, 2, 16, 1, 3, 8, 4, 15, 6, 14, 18, 5, 17, 12, 19, 13, 10, 20, 7, 9, 11, 2, 16, 1, 3, 8, 4, 15, 6, 14, 18, 5, 17, 12, 19, 13, 10, 20, 7, 9, 11, 2, 16, 1, 3, 8, 4, 15, 6, 14, 18, 5, 17, 12, 19, 13, 10, 20, 7, 9, 11, 2, 16, 1, 3, 8, 4, 15, 6, 14, 18, 5, 17, 12, 19, 13, 10, 20, 7, 9, 11, 2, 16, 1, 3, 8, 4, 15, 6, 14, 18, 5, 17, 12]
bestever    1663    in generation 1244
[19, 19, 7, 2, 13, 10, 20, 19, 19, 13, 19, 13, 10, 20, 13, 7, 9, 11, 9, 20, 1, 3, 8, 4, 19, 10, 20, 7, 9, 11, 19, 13, 10, 11, 20, 10, 13, 7, 9, 11, 16, 15, 2, 1, 3, 8, 4, 6, 14, 20, 13, 10, 7, 2, 9, 11, 2, 16, 17, 5, 1, 19, 3, 8, 12, 2, 15, 1, 13, 19, 19, 20, 10, 16, 9, 7, 11, 16, 10, 16, 6, 3, 10, 4, 8, 15, 1, 14, 18, 7, 5, 18, 12, 17, 20, 7, 9, 2, 16, 1, 3, 8, 4, 11, 3, 2, 16, 1, 10, 15, 6, 14, 18, 5, 17, 4, 13, 7, 9, 11, 16, 1, 3, 8, 4, 15, 6, 14, 18, 6, 5, 17, 20, 20, 9, 11, 16, 1, 13, 15, 6, 2, 3, 8, 9, 4, 15, 6, 14, 18, 5, 17, 12, 14, 18, 5, 17, 12, 12, 8, 4, 6, 2, 12, 3, 8, 16, 4, 15, 6, 14, 18, 5, 17, 12, 14, 18, 5, 17, 12, 7, 11, 2, 15, 14, 18, 5, 17, 12, 1, 3, 8, 4, 15, 6, 14, 18, 5, 17, 12]
bestever    1656    in generation 1258
[19, 19, 7, 2, 13, 10, 20, 19, 19, 13, 19, 13, 10, 20, 13, 7, 9, 11, 9, 20, 1, 3, 8, 4, 19, 10, 20, 7, 9, 11, 19, 13, 10, 11, 20, 10, 13, 7, 9, 11, 16, 15, 2, 1, 3, 8, 4, 6, 14, 20, 13, 10, 7, 2, 9, 11, 2, 16, 17, 5, 1, 19, 3, 8, 2, 15, 1, 13, 19, 19, 20, 10, 16, 9, 7, 11, 16, 10, 16, 6, 3, 10, 4, 8, 15, 1, 14, 18, 7, 5, 18, 17, 20, 7, 9, 2, 16, 1, 3, 4, 11, 2, 16, 10, 13, 1, 3, 8, 4, 6, 12, 12, 15, 14, 18, 5, 17, 7, 9, 11, 16, 1, 3, 8, 4, 15, 6, 14, 18, 6, 5, 17, 20, 20, 9, 11, 16, 1, 13, 15, 6, 2, 3, 8, 9, 4, 15, 6, 14, 18, 5, 17, 12, 14, 18, 5, 17, 12, 12, 8, 4, 6, 2, 12, 3, 8, 16, 4, 15, 6, 14, 18, 5, 17, 12, 14, 18, 5, 17, 12, 7, 11, 2, 15, 14, 18, 5, 17, 12, 1, 3, 8, 4, 15, 6, 14, 18, 5, 17, 12]
bestever    1652    in generation 1504
[19, 19, 7, 2, 13, 10, 20, 19, 19, 13, 19, 13, 10, 20, 13, 16, 7, 9, 11, 9, 20, 1, 3, 8, 4, 19, 10, 20, 7, 9, 11, 19, 13, 10, 11, 20, 10, 13, 7, 9, 11, 16, 15, 2, 1, 3, 8, 4, 6, 14, 20, 13, 10, 7, 2, 9, 11, 2, 16, 17, 10, 5, 1, 19, 3, 8, 2, 15, 1, 13, 19, 19, 20, 16, 9, 7, 11, 10, 16, 6, 3, 10, 4, 8, 15, 10, 1, 14, 18, 7, 5, 18, 4, 17, 20, 7, 9, 2, 16, 1, 3, 4, 11, 2, 16, 13, 1, 3, 8, 4, 7, 9, 11, 16, 1, 3, 8, 4, 6, 15, 14, 18, 5, 17, 15, 6, 6, 13, 20, 20, 9, 11, 16, 1, 6, 9, 14, 18, 5, 17, 12, 12, 8, 15, 14, 18, 5, 17, 12, 2, 12, 3, 4, 15, 6, 14, 18, 5, 17, 12, 8, 4, 6, 2, 12, 3, 8, 16, 4, 15, 6, 14, 18, 5, 17, 12, 14, 18, 5, 17, 12, 7, 11, 2, 15, 14, 18, 5, 17, 12, 1, 3, 8, 15, 6, 14, 18, 5, 17, 12]
bestever    1651    in generation 4633
[19, 19, 7, 2, 13, 10, 9, 20, 19, 19, 13, 11, 7, 13, 20, 19, 13, 10, 13, 16, 19, 16, 9, 13, 1, 20, 20, 3, 8, 10, 2, 4, 19, 10, 20, 7, 19, 9, 11, 10, 14, 7, 9, 7, 19, 11, 11, 15, 20, 19, 20, 13, 10, 2, 1, 9, 7, 11, 3, 9, 2, 6, 8, 18, 10, 2, 7, 9, 1, 20, 10, 16, 11, 4, 20, 13, 4, 13, 16, 20, 1, 5, 10, 7, 3, 8, 2, 15, 16, 4, 1, 16, 9, 1, 11, 3, 15, 4, 10, 14, 6, 8, 18, 6, 13, 15, 6, 9, 3, 4, 11, 2, 16, 3, 1, 12, 4, 8, 16, 3, 1, 15, 5, 6, 8, 4, 9, 17, 14, 18, 11, 8, 6, 2, 16, 7, 1, 14, 16, 17, 2, 3, 15, 11, 14, 14, 2, 18, 5, 6, 17, 12, 14, 18, 5, 5, 8, 6, 17, 12, 12, 15, 18, 5, 4, 7, 3, 8, 17, 4, 12, 17, 12, 6, 15, 18, 5, 17, 12, 14, 18, 5, 17, 15, 14, 18, 5, 17, 12, 1, 8, 15, 6, 3, 12, 14, 18, 5, 17, 12]
bestever    1650    in generation 6722
[19, 19, 7, 2, 13, 10, 19, 20, 13, 19, 19, 11, 7, 13, 20, 19, 13, 10, 16, 13, 19, 20, 20, 19, 9, 13, 1, 20, 16, 3, 8, 10, 2, 4, 19, 7, 20, 19, 9, 11, 10, 14, 7, 9, 9, 11, 11, 15, 20, 10, 13, 10, 2, 1, 9, 7, 11, 3, 9, 2, 16, 6, 8, 18, 7, 10, 20, 2, 20, 10, 9, 16, 1, 7, 16, 8, 11, 4, 13, 4, 11, 13, 9, 20, 3, 10, 8, 7, 1, 1, 14, 2, 4, 16, 15, 16, 5, 7, 3, 2, 4, 9, 11, 3, 15, 1, 11, 13, 6, 8, 18, 7, 6, 15, 2, 4, 6, 17, 3, 1, 10, 4, 8, 16, 15, 16, 3, 15, 1, 4, 8, 15, 14, 4, 6, 9, 11, 6, 16, 1, 18, 5, 17, 12, 5, 1, 3, 14, 14, 3, 8, 4, 12, 6, 18, 5, 18, 2, 5, 14, 17, 12, 8, 6, 17, 6, 12, 18, 18, 5, 17, 12, 17, 15, 14, 5, 12, 15, 14, 18, 5, 17, 12, 17, 14, 18, 5, 12, 17, 2, 6, 15, 8, 3, 12, 14, 18, 5, 17, 12]
bestever    1647    in generation 6910
[19, 19, 7, 2, 13, 10, 19, 20, 13, 19, 19, 11, 7, 13, 20, 19, 13, 10, 16, 13, 19, 20, 20, 19, 9, 7, 1, 20, 16, 3, 8, 10, 2, 11, 19, 7, 20, 19, 9, 4, 10, 14, 13, 9, 9, 11, 11, 15, 20, 10, 13, 10, 2, 1, 9, 7, 11, 3, 9, 2, 16, 6, 8, 18, 7, 10, 20, 2, 20, 10, 9, 16, 1, 7, 1, 16, 8, 11, 4, 13, 4, 11, 13, 9, 20, 3, 10, 8, 7, 1, 14, 2, 4, 16, 15, 16, 5, 7, 3, 2, 4, 9, 11, 3, 15, 1, 11, 13, 6, 8, 18, 7, 6, 15, 2, 4, 6, 17, 3, 1, 10, 4, 8, 16, 15, 16, 3, 15, 1, 4, 8, 15, 14, 4, 6, 9, 11, 6, 16, 1, 18, 5, 14, 17, 12, 5, 17, 1, 3, 14, 14, 3, 8, 4, 12, 6, 18, 5, 18, 2, 5, 14, 17, 12, 8, 6, 6, 12, 18, 18, 5, 17, 12, 17, 15, 14, 5, 12, 15, 14, 18, 5, 17, 12, 17, 18, 5, 12, 17, 2, 6, 15, 8, 3, 12, 14, 18, 5, 17, 12]
bestever    1645    in generation 7017
[19, 19, 7, 2, 13, 10, 19, 20, 13, 19, 19, 11, 7, 13, 20, 19, 13, 10, 16, 13, 19, 20, 20, 19, 9, 7, 1, 20, 16, 3, 8, 10, 2, 11, 19, 7, 20, 19, 9, 4, 10, 14, 13, 9, 9, 11, 11, 15, 20, 10, 13, 10, 2, 1, 9, 7, 11, 3, 9, 2, 16, 6, 8, 18, 7, 10, 20, 2, 20, 10, 9, 16, 1, 7, 1, 16, 8, 11, 4, 4, 4, 11, 13, 15, 20, 3, 10, 8, 7, 1, 14, 2, 13, 16, 15, 16, 5, 7, 3, 2, 4, 9, 11, 3, 9, 15, 1, 11, 13, 6, 8, 18, 7, 6, 2, 4, 6, 17, 3, 1, 10, 4, 8, 16, 15, 16, 3, 15, 1, 4, 8, 15, 14, 4, 6, 9, 11, 6, 16, 1, 18, 5, 14, 17, 12, 5, 17, 1, 3, 14, 14, 3, 8, 4, 12, 6, 18, 5, 18, 2, 14, 12, 8, 6, 6, 18, 5, 17, 12, 18, 5, 17, 12, 17, 15, 14, 5, 12, 15, 14, 18, 5, 17, 12, 17, 18, 5, 12, 17, 2, 6, 15, 8, 3, 12, 14, 18, 5, 17, 12]
